1629712800
1629736200
1628661600
1628683200
1628748000
1628755200
1628834400
1628841600
1629108000
1629131400
1629194400
1629217800
1629280800
1629304200
1629367200
1629390600
1629453600
1629477000
1629799200
1629810000
1629885600
1629909000
1629972000
1629995400
1630058400
1630081800
1630317600
1630341000
1630404000
1630427400
1628575200
1628586000
